WARNING: for repeatability, setting FPU to use double precision
============================[ Problem Statistics ]=============================
|                                                                             |
|  Number of variables:        120049                                         |
|  Number of clauses:         3677854                                         |
|  Parse time:                   1.25 s                                       |
|  Eliminated clauses:           0.02 Mb                                      |
|  Simplification time:          1.23 s                                       |
|                                                                             |
============================[ Search Statistics ]==============================
| Conflicts |          ORIGINAL         |          LEARNT          | Progress |
|           |    Vars  Clauses Literals |    Limit  Clauses Lit/Cl |          |
===============================================================================
|       100 |   10574   161408   348262 |    59182      100    163 | 89.193 % |
|       250 |   10574   161408   348262 |    65101      250    254 | 89.193 % |
|       475 |   10574   161408   348262 |    71611      475    273 | 89.193 % |
|       812 |   10574   161408   348262 |    78772      812    270 | 89.193 % |
|      1318 |   10574   161408   348262 |    86649     1318    300 | 89.193 % |
|      2077 |   10574   161408   348262 |    95314     2077    297 | 89.193 % |
|      3216 |   10574   161408   348262 |   104846     3216    313 | 89.193 % |
|      4924 |   10574   161408   348262 |   115330     4924    299 | 89.193 % |
|      7486 |   10574   161408   348262 |   126863     7486    345 | 89.193 % |
|     11330 |   10574   161408   348262 |   139550    11330    341 | 89.193 % |
|     17096 |   10574   161408   348262 |   153505    17096    372 | 89.193 % |
|     25745 |   10574   161408   348262 |   168855    25745    381 | 89.193 % |
|     38719 |   10574   161408   348262 |   185741    38719    389 | 89.193 % |
|     58180 |   10574   161408   348262 |   204315    58180    385 | 89.193 % |
|     87372 |   10574   161408   348262 |   224747    87372    410 | 89.193 % |
===============================================================================
restarts              : 349
conflicts             : 128669         (4314 /sec)
decisions             : 1692642        (0.00 % random) (56750 /sec)
propagations          : 55349656       (1855722 /sec)
conflict literals     : 54911426       (1.01 % deleted)
Memory used           : 526.00 MB
CPU time              : 29.8265 s

SATISFIABLE
